463,248
512,283
761,446
822,600
560,318
207,481
148,490
141,406
311,286
326,350
617,207
629,334
654,353
672,378
721,486
727,548
935,660
893,618
552,805
452,721
523,624
655,419
803,166
436,-75
681,-74
639,140
589,121
470,115
532,700
548,338
1006,457
1108,545
910,91
